15 
300 
-0.5 0 0 0
0.5 0 0 -120
-7 -7 -35 -67
-7 -5 -35 -77
-7 -3 -35 -91
-7 -1 -35 -121
-7 1 35 -12
-7 3 35 -18
-7 5 35 -13
-7 7 35 -17
-5 -7 -35 -60
-5 -5 -25 -105
-5 -3 25 -17
-5 -1 -25 -121
-5 1 25 -21
-5 3 -25 -88
-5 5 -25 -116
-5 7 -35 -84
-3 -7 35 -23
-3 -5 25 -17
-3 -3 -15 -78
-3 -1 15 -27
-3 1 15 -23
-3 3 -15 -97
-3 5 -25 -128
-3 7 35 -19
-1 -7 35 -18
-1 -5 25 -16
-1 -3 15 -24
-1 -1 5 -20
-1 1 -5 -115
-1 3 15 -16
-1 5 -25 -67
-1 7 -35 -77
1 -7 35 -18
1 -5 25 -20
1 -3 15 -15
1 -1 5 -28
1 1 -5 -127
1 3 15 -12
1 5 -25 -102
1 7 -35 -111
3 -7 35 -28
3 -5 -25 -104
3 -3 -15 -100
3 -1 15 -19
3 1 15 -22
3 3 -15 -86
3 5 25 -15
3 7 35 -22
5 -7 35 -21
5 -5 25 -27
5 -3 25 -21
5 -1 25 -17
5 1 -25 -85
5 3 -25 -73
5 5 25 -16
5 7 -35 -110
7 -7 -35 -72
7 -5 -35 -70
7 -3 -35 -96
7 -1 -35 -61
7 1 35 -11
7 3 -35 -138
7 5 35 -20
7 7 35 -16
